certificates/rado_a15_c213_N37.drat
14 -35 -37 0
-16 -14 -35 0
-35 -37 0
d 14 -35 -37 0
-14 16 35 0
16 -37 0
14 9 -37 0
-14 -37 0
-16 -37 0
d -10 -16 -37 0
-37 0
14 -16 0
-16 0
10 0
-14 0
11 0
17 0
34 0
19 0
13 0
-1 0
-28 0
-29 0
-31 0
-35 0
4 0
0
